db/data/259465155994161312940230855507220463.z3.out
-------------------
2500.072235752
